65 64 92 42 44 28 29 98 40 90 99 86 87 74 23 25 77 10 9 78 96 93 91 80 68 56 24 48 
45 5 2 88 14 52 83 76 31 30 63 51 19 22 59 53 57 66 49 20 33 50 32 54 35 39 1 100 55 
69 95 72 82 38 70 61 41 36 8 7 6 81 94 67 62 84 34 46 60 4 17 13 
11 27 71 79 15 16 12 47 73 3 97 37 43 89 58 
21 75 85 18 26 

